p cnf 20 38
-1 -5 0
-1 -7 0
-1 -11 0
-1 -15 0
-2 -3 0
-2 -6 0
-2 -10 0
-2 -11 0
-3 -7 0
-3 -11 0
-3 -16 0
-3 -19 0
-4 -5 0
-4 -6 0
-4 -10 0
-4 -13 0
-4 -15 0
-6 -7 0
-6 -8 0
-6 -17 0
-7 -11 0
-7 -14 0
-8 -17 0
-8 -18 0
-10 -18 0
-10 -19 0
-11 -15 0
-11 -18 0
-12 -19 0
-13 -16 0
-13 -20 0
-14 -19 0
-15 -20 0
-16 -19 0
-16 -20 0
-18 -19 0
-18 -20 0
-19 -20 0
